HUN,8,6,80
0,22,4,25,2,26,3,25,1,26,5,28
2,24,0,21,5,30,4,28,3,28,1,26
3,26,4,28,1,24,5,28,0,21,2,22
1,21,3,29,2,29,5,24,4,26,0,23
3,26,0,28,5,29,2,21,4,21,1,28
2,30,3,21,4,30,5,24,1,29,0,26
5,22,0,23,1,24,4,24,2,28,3,27
0,25,1,21,3,25,4,28,2,25,5,23
